SCIP Status        : solving was interrupted [time limit reached]
Total Time         :    3600.00
  solving          :    3600.00
  presolving       :       0.45 (included in solving)
  reading          :       0.00
  copying          :       0.85 (41 #copies) (minimal 0.00, maximal 0.09, average 0.02)
Original Problem   :
  Problem name     : bbbenchmark/pw09_100.6.cut
  Variables        : 101 (100 binary, 0 integer, 0 implicit integer, 1 continuous)
  Constraints      : 1 initial, 1 maximal
  Objective        : minimize, 1 non-zeros (abs.min = 1, abs.max = 1)
Presolved Problem  :
  Problem name     : t_bbbenchmark/pw09_100.6.cut
  Variables        : 1330 (100 binary, 0 integer, 1181 implicit integer, 49 continuous)
  Constraints      : 1326 initial, 7365 maximal
  Objective        : minimize, 1 non-zeros (abs.min = 1, abs.max = 1)
  Nonzeros         : 11661 constraint, 202 clique table
Presolvers         :   ExecTime  SetupTime  Calls  FixedVars   AggrVars   ChgTypes  ChgBounds   AddHoles    DelCons    AddCons   ChgSides   ChgCoefs
  boundshift       :       0.00       0.00      0          0          0          0          0          0          0          0          0          0
  convertinttobin  :       0.00       0.00      0          0          0          0          0          0          0          0          0          0
  domcol           :       0.00       0.00      1          0          0          0          0          0          0          0          0          0
  dualagg          :       0.00       0.00      0          0          0          0          0          0          0          0          0          0
  dualcomp         :       0.00       0.00      1          0          0          0          0          0          0          0          0          0
  dualinfer        :       0.00       0.00      0          0          0          0          0          0          0          0          0          0
  dualsparsify     :       0.00       0.00      1          0          0          0          0          0          0          0          0          0
  gateextraction   :       0.00       0.00      0          0          0          0          0          0          0          0          0          0
  implics          :       0.00       0.00      2          0          0          0          0          0          0          0          0          0
  inttobinary      :       0.00       0.00      0          0          0          0          0          0          0          0          0          0
  qpkktref         :       0.00       0.00      0          0          0          0          0          0          0          0          0          0
  redvub           :       0.00       0.00      0          0          0          0          0          0          0          0          0          0
  sparsify         :       0.00       0.00      1          0          0          0          0          0          0          0          0          0
  stuffing         :       0.00       0.00      0          0          0          0          0          0          0          0          0          0
  trivial          :       0.00       0.00      4          0          0          0          0          0          0          0          0          0
  tworowbnd        :       0.00       0.00      0          0          0          0          0          0          0          0          0          0
  dualfix          :       0.00       0.00      4          0          0          0          0          0          0          0          0          0
  genvbounds       :       0.00       0.00      0          0          0          0          0          0          0          0          0          0
  probing          :       0.24       0.00      1          0          0          0          0          0          0          0          0          0
  pseudoobj        :       0.00       0.00      1          0          0          0          1          0          0          0          0          0
  symmetry         :       0.00       0.00      0          0          0          0          0          0          0          0          0          0
  vbounds          :       0.00       0.00      1          0          0          0          0          0          0          0          0          0
  varbound         :       0.00       0.00      2          0          0          0          0          0          0          0          0          0
  and              :       0.00       0.00      2          0          0          0          0          0          0          0          0          0
  linear           :       0.00       0.00      2          0          0          0          0          0          0          0          0          0
  logicor          :       0.00       0.00      0          0          0          0          0          0          0          0          0          0
  bounddisjunction :       0.00       0.00      0          0          0          0          0          0          0          0          0          0
  nonlinear        :       0.19       0.00      5          0          0          0          1          0          0       1325          0          0
  benders          :       0.00       0.00      0          0          0          0          0          0          0          0          0          0
  components       :       0.01       0.00      1          0          0          0          0          0          0          0          0          0
  root node        :          -          -      -          0          -          -          7          -          -          -          -          -
Constraints        :     Number  MaxNumber  #Separate #Propagate    #EnfoLP    #EnfoRelax  #EnfoPS    #Check   #ResProp    Cutoffs    DomReds       Cuts    Applied      Conss   Children
  benderslp        :          0          0          0          0     104219          0          0      13582          0          0          0          0          0          0          0
  integral         :          0          0          0          0     104219          0          0      13582          0          0         48          0          0         25     208352
  varbound         :         48         48         34     687280          0          0          0       5057        166          0      66802          0          0          0          0
  and              :       1181       1181     130947     696420          0          0          0       1195     130700          0     503787      13778      11934          0          0
  linear           :         97+       151         34     696661          0          0          0       1193      15584         75    1526068          0          0          0          0
  logicor          :          0+      2334          0      50620          0          0          0          0          4        240          0          0          0          0          0
  bounddisjunction :          0+      3676          0      68270          0          0          0          0          2         47          0          0          0          0          0
  benders          :          0          0          0          0          0          0          0        142          0          0          0          0          0          0          0
  countsols        :          0          0          0          0          0          0          0        142          0          0          0          0          0          0          0
  components       :          0          0          0          0          0          0          0          0          0          0          0          0          0          0          0
Constraint Timings :  TotalTime  SetupTime   Separate  Propagate     EnfoLP     EnfoPS     EnfoRelax   Check    ResProp    SB-Prop
  benderslp        :       0.11       0.00       0.00       0.00       0.09       0.00       0.00       0.02       0.00       0.00
  integral         :      36.84       0.00       0.00       0.00      36.48       0.00       0.00       0.36       0.00       0.00
  varbound         :       1.61       0.00       0.00       1.56       0.00       0.00       0.00       0.04       0.00       0.01
  and              :      63.25       0.00      45.45      17.22       0.00       0.00       0.00       0.32       0.11       0.15
  linear           :      13.90       0.00       0.01      13.77       0.00       0.00       0.00       0.01       0.07       0.04
  logicor          :       1.36       0.00       0.00       1.35       0.00       0.00       0.00       0.00       0.00       0.01
  bounddisjunction :       2.26       0.00       0.00       2.22       0.00       0.00       0.00       0.00       0.00       0.04
  benders          :       0.00       0.00       0.00       0.00       0.00       0.00       0.00       0.00       0.00       0.00
  countsols        :       0.00       0.00       0.00       0.00       0.00       0.00       0.00       0.00       0.00       0.00
  components       :       0.18       0.00       0.00       0.18       0.00       0.00       0.00       0.00       0.00       0.00
Propagators        : #Propagate   #ResProp    Cutoffs    DomReds
  dualfix          :          2          0          0          0
  genvbounds       :          0          0          0          0
  nlobbt           :          0          0          0          0
  obbt             :          0          0          0          0
  probing          :          0          0          0          0
  pseudoobj        :     472215          2          0       1951
  redcost          :     250883          0          0      94098
  rootredcost      :         15          0          0          0
  symmetry         :          0          0          0          0
  vbounds          :     130536          0          0          0
Propagator Timings :  TotalTime  SetupTime   Presolve  Propagate    ResProp    SB-Prop
  dualfix          :       0.01       0.00       0.00       0.01       0.00       0.00
  genvbounds       :       0.41       0.00       0.00       0.41       0.00       0.00
  nlobbt           :       0.00       0.00       0.00       0.00       0.00       0.00
  obbt             :       0.00       0.00       0.00       0.00       0.00       0.00
  probing          :       0.24       0.00       0.24       0.00       0.00       0.00
  pseudoobj        :       0.65       0.00       0.00       0.65       0.00       0.00
  redcost          :      12.57       0.00       0.00      12.57       0.00       0.00
  rootredcost      :       0.52       0.00       0.00       0.52       0.00       0.00
  symmetry         :       0.24       0.00       0.00       0.24       0.00       0.00
  vbounds          :       0.75       0.00       0.00       0.74       0.00       0.01
Conflict Analysis  :       Time      Calls    Success    DomReds  Conflicts   Literals    Reconvs ReconvLits   Dualrays   Nonzeros   LP Iters   (pool size: [10000,10000])
  propagation      :       0.00        287        176          -        232       74.7          0        0.0          -          -          -
  infeasible LP    :       0.09         81         81          -       1579      139.2          0        0.0        141      137.3          0
  bound exceed. LP :      14.50       3756       3587          -      50155      107.9          0        0.0          0        0.0      56392
  strong branching :       0.00          0          0          -          0        0.0          0        0.0          -          -          0
  pseudo solution  :       0.00          0          0          -          0        0.0          0        0.0          -          -          -
  applied globally :       0.26          -          -          0      14063       95.2          -          -        141          -          -
  applied locally  :          -          -          -          0          0        0.0          -          -          0          -          -
Separators         :   ExecTime  SetupTime      Calls  RootCalls    Cutoffs    DomReds  FoundCuts ViaPoolAdd  DirectAdd    Applied ViaPoolApp  DirectApp      Conss
  cut pool         :       3.19          -      27099         56          -          -      35002     377558          -          -          -          -          -    (maximal pool size:       1919)
  aggregation      :      68.47       0.00       6475         34          0          0       3493       8292          0       3425       3425          0          0
  > cmir           :          -          -          -          -          -          -          -       8240          0       3402       3402          0          -
  > flowcover      :          -          -          -          -          -          -          -         52          0         23         23          0          -
  > knapsackcover  :          -          -          -          -          -          -          -          0          0          0          0          0          -
  cgmip            :       0.00       0.00          0          0          0          0          0          0          0          0          0          0          0
  clique           :       0.00       0.00         34         34          0          0          0          0          0          0          0          0          0
  closecuts        :       0.00       0.00          0          0          0          0          0          0          0          0          0          0          0
  convexproj       :       0.00       0.00          0          0          0          0          0          0          0          0          0          0          0
  disjunctive      :       0.00       0.00          0          0          0          0          0          0          0          0          0          0          0
  eccuts           :       0.00       0.00          0          0          0          0          0          0          0          0          0          0          0
  gauge            :       0.00       0.00          0          0          0          0          0          0          0          0          0          0          0
  gomory           :       0.00       0.00          0          0          0          0          0          0          0          0          0          0          0
  > gomorymi       :          -          -          -          -          -          -          -          0          0          0          0          0          -
  > strongcg       :          -          -          -          -          -          -          -          0          0          0          0          0          -
  impliedbounds    :       0.28       0.00       6475         34          0          0         58          3          0          3          3          0          0
  interlattice     :       0.05       0.00          7          7          0          0          7          0          7          7          0          7          0
  interminor       :       0.00       0.00          0          0          0          0          0          0          0          0          0          0          0
  intersub         :       0.00       0.00          0          0          0          0          0          0          0          0          0          0          0
  intobj           :       0.00       0.00          0          0          0          0          0          0          0          0          0          0          0
  mcf              :       0.00       0.00          1          1          0          0          0          0          0          0          0          0          0
  minor            :       0.01       0.00          0          0          0          0          0          0          0          0          0          0          0
  mixing           :       0.06       0.00       6475         34          0          0          0          0          0          0          0          0          0
  oddcycle         :       0.00       0.00          0          0          0          0          0          0          0          0          0          0          0
  rapidlearning    :       0.01       0.00          0          0          0          0          0          0          0          0          0          0          0
  rlt              :       0.00       0.00         10         10          0          0          0          0          0          0          0          0          0
  zerohalf         :      47.19       0.00       6120         20          0          0      31451     369263          0      88543      88543          0          0
Cutselectors       :   ExecTime  SetupTime      Calls  RootCalls   Selected     Forced   Filtered  RootSelec   RootForc   RootFilt 
  hybrid           :       0.34       0.00      17755         34     103912          0     287431        137          0         30
Pricers            :   ExecTime  SetupTime      Calls       Vars
  problem variables:       0.00          -          0          0
Branching Rules    :   ExecTime  SetupTime   BranchLP  BranchExt   BranchPS    Cutoffs    DomReds       Cuts      Conss   Children
  allfullstrong    :       0.00       0.00          0          0          0          0          0          0          0          0
  cloud            :       0.00       0.00          0          0          0          0          0          0          0          0
  distribution     :       0.00       0.00          0          0          0          0          0          0          0          0
  fullstrong       :       0.00       0.00          0          0          0          0          0          0          0          0
  inference        :       0.00       0.00          0          0          0          0          0          0          0          0
  leastinf         :       0.00       0.00          0          0          0          0          0          0          0          0
  lookahead        :       0.00       0.00          0          0          0          0          0          0          0          0
  mostinf          :       0.00       0.00          0          0          0          0          0          0          0          0
  multaggr         :       0.00       0.00          0          0          0          0          0          0          0          0
  nodereopt        :       0.00       0.00          0          0          0          0          0          0          0          0
  pscost           :       0.00       0.00          0          0          0          0          0          0          0          0
  random           :       0.00       0.00          0          0          0          0          0          0          0          0
  relpscost        :      36.13       0.00     104219          0          0          0         48          0         25     208352
  vanillafullstrong:       0.00       0.00          0          0          0          0          0          0          0          0
Primal Heuristics  :   ExecTime  SetupTime      Calls      Found       Best
  LP solutions     :       0.00          -          -          0          0
  relax solutions  :       0.00          -          -          0          0
  pseudo solutions :       0.00          -          -          0          0
  strong branching :       0.00          -          -          0          0
  actconsdiving    :       0.00       0.00          0          0          0
  adaptivediving   :       4.03       0.00         61          0          0
  alns             :       1.02       0.00         13          0          0
  bound            :       0.00       0.00          0          0          0
  clique           :       0.01       0.00          1          0          0
  coefdiving       :       0.00       0.00          0          0          0
  completesol      :       0.00       0.00          0          0          0
  conflictdiving   :      62.25       0.00        402          1          1
  crossover        :       8.78       0.00          5          1          1
  dins             :       0.00       0.00          0          0          0
  distributiondivin:      77.54       0.00        402          0          0
  dps              :       0.00       0.00          0          0          0
  dualval          :       0.00       0.00          0          0          0
  farkasdiving     :       0.01       0.00          0          0          0
  feaspump         :       0.15       0.00          2          1          0
  fixandinfer      :       0.00       0.00          0          0          0
  fracdiving       :      33.91       0.00        402          0          0
  gins             :       0.10       0.00          0          0          0
  guideddiving     :      34.68       0.00        403          1          1
  indicator        :       0.08       0.00          0          0          0
  indicatordiving  :       0.00       0.00          0          0          0
  intdiving        :       0.00       0.00          0          0          0
  intshifting      :       1.01       0.01         89          0          0
  linesearchdiving :      35.03       0.00        403          5          5
  localbranching   :       0.00       0.00          0          0          0
  locks            :       0.01       0.00          1          0          0
  lpface           :       0.13       0.00          0          0          0
  mpec             :      59.48       0.00         11          0          0
  multistart       :       0.00       0.00          0          0          0
  mutation         :       0.00       0.00          0          0          0
  nlpdiving        :      14.62       0.00          3          1          0
  objpscostdiving  :     116.75       0.00        202         88          1
  octane           :       0.00       0.00          0          0          0
  ofins            :       0.11       0.00          0          0          0
  oneopt           :       0.14       0.00         17          0          0
  padm             :       0.00       0.00          0          0          0
  proximity        :       0.00       0.00          0          0          0
  pscostdiving     :      58.76       0.00        402          4          4
  randrounding     :       1.29       0.00      13454          0          0
  rens             :       0.00       0.00          0          0          0
  reoptsols        :       0.00       0.00          0          0          0
  repair           :       0.00       0.00          0          0          0
  rins             :       3.66       0.00         22          0          0
  rootsoldiving    :      16.75       0.00        202         33          1
  rounding         :       1.20       0.00       4783          0          0
  shiftandpropagate:       0.00       0.00          0          0          0
  shifting         :      19.97       0.00       6374          1          1
  simplerounding   :       0.16       0.00          0          0          0
  subnlp           :     125.09       0.00          0          0          0
  trivial          :       0.01       0.00          2          2          2
  trivialnegation  :       0.00       0.00          0          0          0
  trustregion      :       0.00       0.00          0          0          0
  trysol           :       0.18       0.00          0          0          0
  twoopt           :       0.00       0.00          0          0          0
  undercover       :       4.33       0.00          1          1          1
  vbounds          :       0.00       0.00          0          0          0
  veclendiving     :      34.93       0.00        402          0          0
  zeroobj          :       0.00       0.00          0          0          0
  zirounding       :       0.47       0.00       1000          0          0
  other solutions  :          -          -          -          0          -
Diving (single)    :      Calls      Nodes   LP Iters Backtracks  Conflicts   MinDepth   MaxDepth   AvgDepth  RoundSols  NLeafSols  MinSolDpt  MaxSolDpt  AvgSolDpt
  actconsdiving    :          0          -          -          -          -          -          -          -          -          -          -          -          -
  coefdiving       :          0          -          -          -          -          -          -          -          -          -          -          -          -
  conflictdiving   :        402      15420     555500        333       5675         64         91       75.2          0          1         86         86       86.0
  distributiondivin:        402      12843     529530        474       8625         60         93       75.1          0          -          -          -          -
  farkasdiving     :          0          -          -          -          -          -          -          -          -          -          -          -          -
  fracdiving       :        402      60007     282094         79       1110         72        661      192.5          0          -          -          -          -
  guideddiving     :        403      46332     292010         60       2336         67        485      158.6          0          1        153        153      153.0
  indicatordiving  :          0          -          -          -          -          -          -          -          -          -          -          -          -
  linesearchdiving :        403      20002     306834         82       7926         64        111       90.8          0          5         84        101       92.0
  pscostdiving     :        402      17177     498786        416       7717         69         99       85.5          0          4         79         90       86.0
  veclendiving     :        402      15779     293297        334      17574         65         96       79.9          0          -          -          -          -
Diving (adaptive)  :      Calls      Nodes   LP Iters Backtracks  Conflicts   MinDepth   MaxDepth   AvgDepth  RoundSols  NLeafSols  MinSolDpt  MaxSolDpt  AvgSolDpt
  actconsdiving    :          3         64         94          3         22         68         73       70.7          0          -          -          -          -
  coefdiving       :         13        544       8777          8        384         71         94       83.5          0          -          -          -          -
  conflictdiving   :          0          -          -          -          -          -          -          -          -          -          -          -          -
  distributiondivin:          0          -          -          -          -          -          -          -          -          -          -          -          -
  farkasdiving     :          0          -          -          -          -          -          -          -          -          -          -          -          -
  fracdiving       :         11        856       2701          1         68         79        360      125.2          0          -          -          -          -
  guideddiving     :          8        828       4716          0          0        114        220      153.4          0          -          -          -          -
  indicatordiving  :          0          -          -          -          -          -          -          -          -          -          -          -          -
  linesearchdiving :         15        699       9599          1        258         72         99       88.5          0          -          -          -          -
  pscostdiving     :          4        158       3082          4         44         85         88       86.5          0          -          -          -          -
  veclendiving     :          7        237       3193          2        207         67         87       77.1          0          -          -          -          -
Neighborhoods      :      Calls  SetupTime  SolveTime SolveNodes       Sols       Best       Exp3  EpsGreedy        UCB TgtFixRate  Opt  Inf Node Stal  Sol  Usr Othr Actv
  rens             :          2       0.04       0.08         50          0          0    0.00000   -1.00000    0.47095      0.850    0    1    0    1    0    0    0    1
  rins             :          1       0.01       0.01          1          0          0    0.00000   -1.00000    0.56398      0.700    0    1    0    0    0    0    0    1
  mutation         :          1       0.02       0.01         23          0          0    0.00000   -1.00000    0.54428      0.700    0    1    0    0    0    0    0    1
  localbranching   :          2       0.04       0.07         60          0          0    0.00000   -1.00000    0.47045      0.850    0    1    0    1    0    0    0    1
  crossover        :          2       0.09       0.15         63          0          0    0.00000   -1.00000    0.47045      0.850    0    1    0    1    0    0    0    1
  proximity        :          2       0.06       0.14         57          0          0    0.00000   -1.00000    0.47045      0.850    0    1    0    1    0    0    0    1
  zeroobjective    :          1       0.01       0.03         51          0          0    0.00000   -1.00000    0.51398      0.700    0    1    0    0    0    0    0    1
  dins             :          2       0.03       0.09         54          0          0    0.00000   -1.00000    0.47045      0.850    0    1    0    1    0    0    0    1
  trustregion      :          0       0.00       0.00          0          0          0    0.00000   -1.00000    1.00000      0.900    0    0    0    0    0    0    0    0
Expressions        :   #IntEval  IntEvalTi   #RevProp  RevPropTi    DomReds    Cutoffs  #Estimate  EstimTime  Branching  #Simplify SimplifyTi Simplified
  pow              :          0       0.00          0       0.00          0          0          0       0.00          0          0       0.00          0
  prod             :      17820       0.00          0       0.00          0          0          0       0.00          0      10091       0.01          0
  sum              :          8       0.00          2       0.00          0          0          0       0.00          0          3       0.06          2
  var              :       4799       0.00          0       0.00          0          0          0       0.00          0      21714       0.00          0
  varidx           :          0       0.00          0       0.00          0          0          0       0.00          0          0       0.00          0
LP                 :       Time      Calls Iterations  Iter/call   Iter/sec  Time-0-It Calls-0-It    ItLimit
  primal LP        :      69.45      10890          0       0.00       0.00      69.35      10890
  dual LP          :    2404.64     195017   18794052     110.38    7815.74       8.99      24748
  lex dual LP      :       0.00          0          0       0.00          -
  barrier LP       :       0.00          0          0       0.00          -       0.00          0
  resolve instable :       0.00          0          0       0.00          -
  diving/probing LP:     393.58      27355    3542601     129.50    9000.97
  strong branching :      12.23        835     105534     126.39    8629.11          -          -        501
    (at root node) :          -         20       3089     154.45          -
  conflict analysis:       7.34       6082      56392       9.27    7682.83
NLP relaxation     :
  solve time       :      14.32 (21 calls)
  convexity        :  nonconvex (145 linear rows, 0 convex ineq., 0 nonconvex ineq., 1181 nonlinear eq. or two-sided ineq.)
NLP Solvers        :  #Problems  ProblemTi    #Solves  SolveTime      #Iter  Time/Iter      #Okay #TimeLimit #IterLimit #LObjLimit #Interrupt  #NumError #EvalError  #OutOfMem #LicenseEr #OtherTerm   #GlobOpt    #LocOpt  #Feasible #LocInfeas #GlobInfea #Unbounded   #Unknown
  ipopt            :         12       6.11         58      74.07       1770       0.04         56          0          2          0          0          0          0          0          0          0          0         37          0         18          0          0          3
B&B Tree           :
  number of runs   :          1
  nodes            :     152527 (104176 internal, 48351 leaves)
  feasible leaves  :          0
  infeas. leaves   :         34
  objective leaves :      48316
  nodes (total)    :     152527 (104176 internal, 48351 leaves)
  nodes left       :      52252
  max depth        :         79
  max depth (total):         79
  backtracks       :      31759 (20.8%)
  early backtracks :          0 (0.0%)
  nodes exc. ref.  :          0 (0.0%)
  delayed cutoffs  :          0
  repropagations   :       6131 (353 domain reductions, 0 cutoffs)
  avg switch length:       7.14
  switching time   :     107.11
Estim. Tree Size   :     312202
Estimation Tree    : 208353 nodes (156101 visited, 104176 internal, 51925 leaves, 52252 open), weight: 0.0000 completed 0.1017
Estimations        :      estim      value      trend resolution     smooth
  wbe              : 8274142587894594560          -          -          -          -
  tree-profile     :         -1          -          -          -          -
  gap              :    5267894    0.59987    0.00001         64    5238214
  tree-weight      :     312202    0.00000    0.00000         64     310468
  leaf-frequency   :     312202    0.33263   -0.00024         64     310469
  ssg              :    9569768    0.83935   -0.00001         64    9249722
  open-nodes       :     312202 52252.00000  265.03475         64     310467
Root Node          :
  First LP value   : -5.55465768799102e+00
  First LP Iters   :       2240 (11789.47 Iter/sec)
  First LP Time    :       0.19
  Final Dual Bound : -5.42818989574291e+00
  Final Root Iters :       2821
  Root LP Estimate : -2.61345819705084e+00
Solution           :
  Solutions found  :        139 (18 improvements)
  First Solution   : +1.00000000000000e+05   (in run 1, after 0 nodes, 0.08 seconds, depth 0, found by <trivial>)
  Gap First Sol.   :   infinite
  Gap Last Sol.    :      66.76 %
  Primal Bound     : -2.99551066217733e+00   (in run 1, after 145078 nodes, 2707.72 seconds, depth 42, found by <crossover>)
  Dual Bound       : -4.99361522733891e+00
  Gap              :      66.70 %
Integrals          :      Total       Avg%
  primal-dual      :  148071.57      41.13
  primal-ref       :          -          - (not evaluated)
  dual-ref         :          -          - (not evaluated)
